127 130913
1 7 114 11 9 6 108 24 23 106 4 22 19 72 8 67 74 73 68 71 70 110 104 125 89 92 99 65 113 64 58 100 91 61 62 59 60 116 90 3 10 5 121 56 52 124 66 55 47 49 118 48 53 46 94 112 111 107 127 93 44 57 54 45 103 95 123 97 98 101 102 82 83 32 29 122 28 33 25 26 38 42 39 34 43 40 35 2 51 50 13 115 120 105 15 20 21 17 18 77 76 75 69 96 109 85 86 87 88 119 63 126 81 84 117 78 80 79 27 31 12 14 30 41 36 37 16 
